c generated by sgen
p cnf 77 164
-2 -3 -4 0
-1 -3 -4 0
-1 -2 -4 0
-1 -2 -3 0
-6 -7 -8 0
-5 -7 -8 0
-5 -6 -8 0
-5 -6 -7 0
-10 -11 -12 0
-9 -11 -12 0
-9 -10 -12 0
-9 -10 -11 0
-14 -15 -16 0
-13 -15 -16 0
-13 -14 -16 0
-13 -14 -15 0
-18 -19 -20 0
-17 -19 -20 0
-17 -18 -20 0
-17 -18 -19 0
-22 -23 -24 0
-21 -23 -24 0
-21 -22 -24 0
-21 -22 -23 0
-26 -27 -28 0
-25 -27 -28 0
-25 -26 -28 0
-25 -26 -27 0
-30 -31 -32 0
-29 -31 -32 0
-29 -30 -32 0
-29 -30 -31 0
-34 -35 -36 0
-33 -35 -36 0
-33 -34 -36 0
-33 -34 -35 0
-38 -39 -40 0
-37 -39 -40 0
-37 -38 -40 0
-37 -38 -39 0
-42 -43 -44 0
-41 -43 -44 0
-41 -42 -44 0
-41 -42 -43 0
-46 -47 -48 0
-45 -47 -48 0
-45 -46 -48 0
-45 -46 -47 0
-50 -51 -52 0
-49 -51 -52 0
-49 -50 -52 0
-49 -50 -51 0
-54 -55 -56 0
-53 -55 -56 0
-53 -54 -56 0
-53 -54 -55 0
-58 -59 -60 0
-57 -59 -60 0
-57 -58 -60 0
-57 -58 -59 0
-62 -63 -64 0
-61 -63 -64 0
-61 -62 -64 0
-61 -62 -63 0
-66 -67 -68 0
-65 -67 -68 0
-65 -66 -68 0
-65 -66 -67 0
-70 -71 -72 0
-69 -71 -72 0
-69 -70 -72 0
-69 -70 -71 0
-73 -74 -75 0
-73 -74 -76 0
-73 -74 -77 0
-73 -75 -76 0
-73 -75 -77 0
-73 -76 -77 0
-74 -75 -76 0
-74 -75 -77 0
-74 -76 -77 0
-75 -76 -77 0
13 35 23 0
76 35 23 0
76 13 23 0
76 13 35 0
54 16 3 0
57 16 3 0
57 54 3 0
57 54 16 0
32 28 14 0
43 28 14 0
43 32 14 0
43 32 28 0
42 52 77 0
38 52 77 0
38 42 77 0
38 42 52 0
72 25 22 0
49 25 22 0
49 72 22 0
49 72 25 0
24 30 65 0
19 30 65 0
19 24 65 0
19 24 30 0
61 1 40 0
29 1 40 0
29 61 40 0
29 61 1 0
17 70 33 0
39 70 33 0
39 17 33 0
39 17 70 0
41 37 60 0
21 37 60 0
21 41 60 0
21 41 37 0
59 8 73 0
71 8 73 0
71 59 73 0
71 59 8 0
47 64 50 0
36 64 50 0
36 47 50 0
36 47 64 0
11 62 5 0
26 62 5 0
26 11 5 0
26 11 62 0
51 10 67 0
2 10 67 0
2 51 67 0
2 51 10 0
45 6 4 0
20 6 4 0
20 45 4 0
20 45 6 0
27 53 46 0
68 53 46 0
68 27 46 0
68 27 53 0
74 9 48 0
58 9 48 0
58 74 48 0
58 74 9 0
18 56 75 0
63 56 75 0
63 18 75 0
63 18 56 0
34 55 31 0
12 55 31 0
12 34 31 0
12 34 55 0
66 7 69 0
66 7 15 0
66 7 44 0
66 69 15 0
66 69 44 0
66 15 44 0
7 69 15 0
7 69 44 0
7 15 44 0
69 15 44 0
